p tw 31 68
1 18
1 13
1 6
2 29
2 13
2 14
2 4
3 5
3 23
3 8
4 20
4 15
4 14
5 8
5 6
6 11
6 27
7 16
7 15
7 10
7 22
8 9
8 12
9 30
9 23
9 24
9 12
10 22
10 11
10 12
11 30
11 14
11 12
12 26
12 20
13 29
13 18
13 19
13 14
14 19
15 20
15 16
15 25
16 17
16 28
17 31
17 24
17 28
18 19
18 21
19 21
20 26
20 25
21 27
21 28
21 22
23 24
23 25
24 30
24 31
24 25
25 26
26 27
26 28
27 28
29 31
29 30
30 31
